
******************************************************************************
This program contains Ipopt, a library for large-scale nonlinear optimization.
 Ipopt is released as open source code under the Eclipse Public License (EPL).
         For more information visit http://projects.coin-or.org/Ipopt

This version of Ipopt was compiled from source code available at
    https://github.com/IDAES/Ipopt as part of the Institute for the Design of
    Advanced Energy Systems Process Systems Engineering Framework (IDAES PSE
    Framework) Copyright (c) 2018-2019. See https://github.com/IDAES/idaes-pse.

This version of Ipopt was compiled using HSL, a collection of Fortran codes
    for large-scale scientific computation.  All technical papers, sales and
    publicity material resulting from use of the HSL codes within IPOPT must
    contain the following acknowledgement:
        HSL, a collection of Fortran codes for large-scale scientific
        computation. See http://www.hsl.rl.ac.uk.
******************************************************************************

This is Ipopt version 3.13.2, running with linear solver ma27.

Number of nonzeros in equality constraint Jacobian...:      808
Number of nonzeros in inequality constraint Jacobian.:        0
Number of nonzeros in Lagrangian Hessian.............:      702

Total number of variables............................:      351
                     variables with only lower bounds:      108
                variables with lower and upper bounds:      189
                     variables with only upper bounds:        0
Total number of equality constraints.................:      350
Total number of inequality constraints...............:        0
        inequality constraints with only lower bounds:        0
   inequality constraints with lower and upper bounds:        0
        inequality constraints with only upper bounds:        0

iter    objective    inf_pr   inf_du lg(mu)  ||d||  lg(rg) alpha_du alpha_pr  ls
   0  0.0000000e+00 4.53e-01 8.88e-16  -1.0 0.00e+00    -  0.00e+00 0.00e+00   0
   1  7.1758964e+00 1.46e+00 4.48e+04  -1.0 2.60e+05    -  5.87e-01 6.30e-01h  1
   2  7.8053065e+00 1.36e+00 4.19e+04  -1.0 1.24e+05    -  8.33e-01 5.90e-02h  1
   3  8.6881044e+00 1.25e+00 3.88e+04  -1.0 1.67e+05    -  8.36e-01 7.82e-02h  1
   4  2.5839581e+01 8.67e-02 8.94e+03  -1.0 1.56e+05    -  8.52e-01 9.90e-01h  1
   5  2.8063053e+01 5.11e-03 2.03e+03  -1.0 1.46e+04    -  3.67e-01 9.90e-01h  1
   6  2.8101069e+01 6.65e-05 7.62e+04  -1.0 2.42e+02    -  7.45e-01 9.90e-01h  1
   7  2.8105804e+01 1.14e-06 1.35e+07  -1.0 7.07e+01    -  5.57e-01 9.90e-01h  1
   8  2.8115431e+01 1.06e-07 1.22e+09  -1.0 1.54e+02    -  5.99e-01 9.90e-01H  1
   9  2.8115515e+01 1.06e-07 1.93e+11  -1.0 3.42e+02    -  6.27e-01 3.87e-03h  9
iter    objective    inf_pr   inf_du lg(mu)  ||d||  lg(rg) alpha_du alpha_pr  ls
  10  2.8115539e+01 1.06e-07 3.26e+11  -1.0 7.86e+02    -  4.25e-01 4.83e-04h 12
  11  2.8115556e+01 1.06e-07 4.29e+11  -1.0 1.16e+03    -  3.33e-01 2.42e-04h 13
  12  2.8115568e+01 1.06e-07 5.17e+11  -1.0 1.49e+03    -  2.79e-01 1.21e-04h 14
  13  2.8115581e+01 1.06e-07 5.94e+11  -1.0 1.76e+03    -  2.48e-01 1.21e-04h 14
  14  2.8115589e+01 1.06e-07 6.64e+11  -1.0 2.01e+03    -  2.24e-01 6.04e-05h 15
  15  2.8144534e+01 5.09e-05 5.25e+11  -1.0 2.20e+03    -  2.09e-01 2.09e-01s 22
  16  2.8207267e+01 2.48e-04 2.71e+11  -1.0 2.05e+03    -  4.83e-01 4.83e-01s 22
  17  2.8302032e+01 4.73e-04 1.30e+10  -1.0 1.56e+03    -  9.52e-01 9.52e-01s 22
  18  2.8327353e+01 4.30e-05 1.30e+08  -1.0 4.00e+02    -  9.90e-01 9.90e-01s 22
  19  2.8102202e+01 2.93e-03 2.84e+11  -3.8 4.03e+03    -  9.98e-01 8.80e-01f  1
In iteration 19, 27 Slacks too small, adjusting variable bounds
iter    objective    inf_pr   inf_du lg(mu)  ||d||  lg(rg) alpha_du alpha_pr  ls
  20  2.8099086e+01 8.92e-07 3.05e+09  -3.8 4.40e+01    -  1.00e+00 1.00e+00h  1
  21  2.8099077e+01 2.49e-12 3.91e-03  -3.8 1.36e-01    -  1.00e+00 1.00e+00h  1
  22  2.8098817e+01 4.34e-09 2.28e+12  -9.0 4.66e+00    -  1.00e+00 8.85e-01f  1
  23  2.8098817e+01 2.13e-12 2.85e-04  -9.0 4.95e-05    -  1.00e+00 1.00e+00h  1

Number of Iterations....: 23

                                   (scaled)                 (unscaled)
Objective...............:   2.8098817002082921e+01    2.8098817002082921e+01
Dual infeasibility......:   2.8470158576965332e-04    2.8470158576965332e-04
Constraint violation....:   2.1258550475522497e-12    2.1258550475522497e-12
Complementarity.........:   1.3869833008747459e-09    1.3869833008747459e-09
Overall NLP error.......:   3.6713927508848452e-09    2.8470158576965332e-04


Number of objective function evaluations             = 145
Number of objective gradient evaluations             = 24
Number of equality constraint evaluations            = 145
Number of inequality constraint evaluations          = 0
Number of equality constraint Jacobian evaluations   = 24
Number of inequality constraint Jacobian evaluations = 0
Number of Lagrangian Hessian evaluations             = 23
Total CPU secs in IPOPT (w/o function evaluations)   =      0.049
Total CPU secs in NLP function evaluations           =      1.002

EXIT: Optimal Solution Found.
